TYPE : Vertex Cover
DIMENSION: 39
EDGE_DATA_SECTION:
0 4
0 6
0 15
0 22
0 23
0 30
0 33
1 2
1 16
1 17
1 20
1 26
1 29
1 34
1 38
2 5
2 16
2 17
2 18
2 20
2 31
2 33
2 34
3 4
3 8
3 15
4 10
4 14
4 15
4 17
4 26
4 30
4 32
5 14
5 15
5 18
5 19
5 21
5 25
5 28
6 14
6 16
6 19
6 21
6 25
6 37
7 9
7 13
7 16
7 19
7 22
7 23
7 33
8 9
8 11
8 31
8 32
9 16
9 18
9 27
10 14
10 15
10 21
10 22
10 26
11 16
11 19
11 21
11 22
11 28
11 37
12 14
12 15
12 19
12 20
12 30
12 34
12 36
13 18
13 21
13 30
13 34
14 15
14 24
14 30
14 37
15 27
15 28
15 30
16 22
16 23
16 29
16 31
16 32
16 35
17 19
17 25
17 27
17 36
18 27
18 35
18 38
19 30
19 32
19 34
20 27
20 29
20 30
20 37
20 38
22 27
23 27
23 30
23 32
23 36
23 37
25 31
26 27
26 30
26 33
26 36
27 38
29 34
30 35
30 37
31 38
32 35
-1
VERTEX_DEGREE:
7.0 8.0 9.0 3.0 9.0 8.0 7.0 7.0 5.0 5.0 6.0 7.0 7.0 5.0 9.0 10.0 12.0 7.0 7.0 9.0 8.0 5.0 6.0 8.0 1.0 4.0 7.0 9.0 3.0 4.0 12.0 5.0 6.0 4.0 6.0 4.0 4.0 6.0 5.0
VERTEX_COVER:
0 1 2 4 7 8 14 15 16 18 19 20 21 22 25 26 27 28 30 32 34 36 37 38
EOF
